28 378 14
0 1 1.00
0 2 3.00
0 3 84.00
0 4 3.00
0 5 84.00
0 6 3.00
0 7 84.00
0 8 3.00
0 9 84.00
0 10 3.00
0 11 84.00
0 12 3.00
0 13 84.00
0 14 3.00
0 15 84.00
0 16 3.00
0 17 84.00
0 18 3.00
0 19 84.00
0 20 3.00
0 21 84.00
0 22 3.00
0 23 84.00
0 24 3.00
0 25 84.00
0 26 3.00
0 27 1.00
1 2 1.00
1 3 84.00
1 4 84.00
1 5 84.00
1 6 84.00
1 7 84.00
1 8 84.00
1 9 84.00
1 10 84.00
1 11 84.00
1 12 84.00
1 13 84.00
1 14 84.00
1 15 84.00
1 16 84.00
1 17 84.00
1 18 84.00
1 19 84.00
1 20 84.00
1 21 84.00
1 22 84.00
1 23 84.00
1 24 84.00
1 25 84.00
1 26 84.00
1 27 84.00
2 3 1.00
2 4 3.00
2 5 84.00
2 6 3.00
2 7 84.00
2 8 3.00
2 9 84.00
2 10 3.00
2 11 84.00
2 12 3.00
2 13 84.00
2 14 3.00
2 15 84.00
2 16 3.00
2 17 84.00
2 18 3.00
2 19 84.00
2 20 3.00
2 21 84.00
2 22 3.00
2 23 84.00
2 24 3.00
2 25 84.00
2 26 3.00
2 27 84.00
3 4 1.00
3 5 84.00
3 6 84.00
3 7 84.00
3 8 84.00
3 9 84.00
3 10 84.00
3 11 84.00
3 12 84.00
3 13 84.00
3 14 84.00
3 15 84.00
3 16 84.00
3 17 84.00
3 18 84.00
3 19 84.00
3 20 84.00
3 21 84.00
3 22 84.00
3 23 84.00
3 24 84.00
3 25 84.00
3 26 84.00
3 27 84.00
4 5 1.00
4 6 3.00
4 7 84.00
4 8 3.00
4 9 84.00
4 10 3.00
4 11 84.00
4 12 3.00
4 13 84.00
4 14 3.00
4 15 84.00
4 16 3.00
4 17 84.00
4 18 3.00
4 19 84.00
4 20 3.00
4 21 84.00
4 22 3.00
4 23 84.00
4 24 3.00
4 25 84.00
4 26 3.00
4 27 84.00
5 6 1.00
5 7 84.00
5 8 84.00
5 9 84.00
5 10 84.00
5 11 84.00
5 12 84.00
5 13 84.00
5 14 84.00
5 15 84.00
5 16 84.00
5 17 84.00
5 18 84.00
5 19 84.00
5 20 84.00
5 21 84.00
5 22 84.00
5 23 84.00
5 24 84.00
5 25 84.00
5 26 84.00
5 27 84.00
6 7 1.00
6 8 3.00
6 9 84.00
6 10 3.00
6 11 84.00
6 12 3.00
6 13 84.00
6 14 3.00
6 15 84.00
6 16 3.00
6 17 84.00
6 18 3.00
6 19 84.00
6 20 3.00
6 21 84.00
6 22 3.00
6 23 84.00
6 24 3.00
6 25 84.00
6 26 3.00
6 27 84.00
7 8 1.00
7 9 84.00
7 10 84.00
7 11 84.00
7 12 84.00
7 13 84.00
7 14 84.00
7 15 84.00
7 16 84.00
7 17 84.00
7 18 84.00
7 19 84.00
7 20 84.00
7 21 84.00
7 22 84.00
7 23 84.00
7 24 84.00
7 25 84.00
7 26 84.00
7 27 84.00
8 9 1.00
8 10 3.00
8 11 84.00
8 12 3.00
8 13 84.00
8 14 3.00
8 15 84.00
8 16 3.00
8 17 84.00
8 18 3.00
8 19 84.00
8 20 3.00
8 21 84.00
8 22 3.00
8 23 84.00
8 24 3.00
8 25 84.00
8 26 3.00
8 27 84.00
9 10 1.00
9 11 84.00
9 12 84.00
9 13 84.00
9 14 84.00
9 15 84.00
9 16 84.00
9 17 84.00
9 18 84.00
9 19 84.00
9 20 84.00
9 21 84.00
9 22 84.00
9 23 84.00
9 24 84.00
9 25 84.00
9 26 84.00
9 27 84.00
10 11 1.00
10 12 3.00
10 13 84.00
10 14 3.00
10 15 84.00
10 16 3.00
10 17 84.00
10 18 3.00
10 19 84.00
10 20 3.00
10 21 84.00
10 22 3.00
10 23 84.00
10 24 3.00
10 25 84.00
10 26 3.00
10 27 84.00
11 12 1.00
11 13 84.00
11 14 84.00
11 15 84.00
11 16 84.00
11 17 84.00
11 18 84.00
11 19 84.00
11 20 84.00
11 21 84.00
11 22 84.00
11 23 84.00
11 24 84.00
11 25 84.00
11 26 84.00
11 27 84.00
12 13 1.00
12 14 3.00
12 15 84.00
12 16 3.00
12 17 84.00
12 18 3.00
12 19 84.00
12 20 3.00
12 21 84.00
12 22 3.00
12 23 84.00
12 24 3.00
12 25 84.00
12 26 3.00
12 27 84.00
13 14 1.00
13 15 84.00
13 16 84.00
13 17 84.00
13 18 84.00
13 19 84.00
13 20 84.00
13 21 84.00
13 22 84.00
13 23 84.00
13 24 84.00
13 25 84.00
13 26 84.00
13 27 84.00
14 15 1.00
14 16 3.00
14 17 84.00
14 18 3.00
14 19 84.00
14 20 3.00
14 21 84.00
14 22 3.00
14 23 84.00
14 24 3.00
14 25 84.00
14 26 3.00
14 27 84.00
15 16 1.00
15 17 84.00
15 18 84.00
15 19 84.00
15 20 84.00
15 21 84.00
15 22 84.00
15 23 84.00
15 24 84.00
15 25 84.00
15 26 84.00
15 27 84.00
16 17 1.00
16 18 3.00
16 19 84.00
16 20 3.00
16 21 84.00
16 22 3.00
16 23 84.00
16 24 3.00
16 25 84.00
16 26 3.00
16 27 84.00
17 18 1.00
17 19 84.00
17 20 84.00
17 21 84.00
17 22 84.00
17 23 84.00
17 24 84.00
17 25 84.00
17 26 84.00
17 27 84.00
18 19 1.00
18 20 3.00
18 21 84.00
18 22 3.00
18 23 84.00
18 24 3.00
18 25 84.00
18 26 3.00
18 27 84.00
19 20 1.00
19 21 84.00
19 22 84.00
19 23 84.00
19 24 84.00
19 25 84.00
19 26 84.00
19 27 84.00
20 21 1.00
20 22 3.00
20 23 84.00
20 24 3.00
20 25 84.00
20 26 3.00
20 27 84.00
21 22 1.00
21 23 84.00
21 24 84.00
21 25 84.00
21 26 84.00
21 27 84.00
22 23 1.00
22 24 3.00
22 25 84.00
22 26 3.00
22 27 84.00
23 24 1.00
23 25 84.00
23 26 84.00
23 27 84.00
24 25 1.00
24 26 3.00
24 27 84.00
25 26 1.00
25 27 84.00
26 27 1.00
0
2
4
6
8
10
12
14
16
18
20
22
24
26
